SCIP version 5.0.0 [precision: 8 byte] [memory: block] [mode: optimized] [LP solver: NONE] [GitHash: 3bbd232]
Copyright (C) 2002-2017 Konrad-Zuse-Zentrum fuer Informationstechnik Berlin (ZIB)

External codes: 
  Readline EditLine w  GNU library for command line editing (gnu.org/s/readline)
  CppAD 20160000.1     Algorithmic Differentiation of C++ algorithms developed by B. Bell (www.coin-or.org/CppAD)
  ZLIB 1.2.5           General purpose compression library by J. Gailly and M. Adler (zlib.net)
  GMP 6.1.2            GNU Multiple Precision Arithmetic Library developed by T. Granlund (gmplib.org)

user parameter file <scip.set> not found - using default parameters

read problem <../../Split_data/output/parkin/8/4_sample_parkin.logreg>
============

File name	:	../../Split_data/output/parkin/8/4_sample_parkin.logreg
Problem name 	:	4_sample_parkin
Number of data	:	156
Number of var	:	22
The given data has linear independence

[dim=1] time: 0.003731
[dim=2] time: 0.008705
[dim=3] time: 0.012348
[dim=4] time: 0.015047
[dim=5] time: 0.017296
[dim=6] time: 0.01973
[dim=7] Time of forward = 0.021828sec.
AIC: 112.261
k: 6

[dim=22] time: 0.031768
[dim=21] time: 0.058183
[dim=20] time: 0.077865
[dim=19] time: 0.085005
[dim=18] time: 0.087228
[dim=17] time: 0.090668
[dim=16] time: 0.093601
[dim=15] time: 0.096431
[dim=14] time: 0.098965
[dim=13] time: 0.101295
[dim=12] time: 0.103273
[dim=11] time: 0.104653
[dim=10] time: 0.106422
[dim=9] time: 0.108235
[dim=8] time: 0.109387
[dim=7] Time of backward = 0.110613sec.
AIC: 106.813
k: 8
